MARKOV
926
 2 2 2 2 2 2 2 2 2 2 2 2 2 2 2 2 2 2 2 2 2 2 2 2 2 2 2 2 2 2 2 2 2 2 2 2 2 2 2 2 2 2 2 2 2 2 2 2 2 2 2 2 2 2 2 2 2 2 2 2 2 2 2 2 2 2 2 2 2 2 2 2 2 2 2 2 2 2 2 2 2 2 2 2 2 2 2 2 2 2 2 2 2 2 2 2 2 2 2 2 2 2 2 2 2 2 2 2 2 2 2 2 2 2 2 2 2 2 2 2 2 2 2 2 2 2 2 2 2 2 2 2 2 2 2 2 2 2 2 2 2 2 2 2 2 2 2 2 2 2 2 2 2 2 2 2 2 2 2 2 2 2 2 2 2 2 2 2 2 2 2 2 2 2 2 2 2 2 2 2 2 2 2 2 2 2 2 2 2 2 2 2 2 2 2 2 2 2 2 2 2 2 2 2 2 2 2 2 2 2 2 2 2 2 2 2 2 2 2 2 2 2 2 2 2 2 2 2 2 2 2 2 2 2 2 2 2 2 2 2 2 2 2 2 2 2 2 2 2 2 2 2 2 2 2 2 2 2 2 2 2 2 2 2 2 2 2 2 2 2 2 2 2 2 2 2 2 2 2 2 2 2 2 2 2 2 2 2 2 2 2 2 2 2 2 2 2 2 2 2 2 2 2 2 2 2 2 2 2 2 2 2 2 2 2 2 2 2 2 2 2 2 2 2 2 2 2 2 2 2 2 2 2 2 2 2 2 2 2 2 2 2 2 2 2 2 2 2 2 2 2 2 2 2 2 2 2 2 2 2 2 2 2 2 2 2 2 2 2 2 2 2 2 2 2 2 2 2 2 2 2 2 2 2 2 2 2 2 2 2 2 2 2 2 2 2 2 2 2 2 2 2 2 2 2 2 2 2 2 2 2 2 2 2 2 2 2 2 2 2 2 2 2 2 2 2 2 2 2 2 2 2 2 2 2 2 2 2 2 2 2 2 2 2 2 2 2 2 2 2 2 2 2 2 2 2 2 2 2 2 2 2 2 2 2 2 2 2 2 2 2 2 2 2 2 2 2 2 2 2 2 2 2 2 2 2 2 2 2 2 2 2 2 2 2 2 2 2 2 2 2 2 2 2 2 2 2 2 2 2 2 2 2 2 2 2 2 2 2 2 2 2 2 2 2 2 2 2 2 2 2 2 2 2 2 2 2 2 2 2 2 2 2 2 2 2 2 2 2 2 2 2 2 2 2 2 2 2 2 2 2 2 2 2 2 2 2 2 2 2 2 2 2 2 2 2 2 2 2 2 2 2 2 2 2 2 2 2 2 2 2 2 2 2 2 2 2 2 2 2 2 2 2 2 2 2 2 2 2 2 2 2 2 2 2 2 2 2 2 2 2 2 2 2 2 2 2 2 2 2 2 2 2 2 2 2 2 2 2 2 2 2 2 2 2 2 2 2 2 2 2 2 2 2 2 2 2 2 2 2 2 2 2 2 2 2 2 2 2 2 2 2 2 2 2 2 2 2 2 2 2 2 2 2 2 2 2 2 2 2 2 2 2 2 2 2 2 2 2 2 2 2 2 2 2 2 2 2 2 2 2 2 2 2 2 2 2 2 2 2 2 2 2 2 2 2 2 2 2 2 2 2 2 2 2 2 2 2 2 2 2 2 2 2 2 2 2 2 2 2 2 2 2 2 2 2 2 2 2 2 2 2 2 2 2 2 2 2 2 2 2 2 2 2 2 2 2 2 2 2 2 2 2 2 2 2 2 2 2 2 2 2 2 2 2 2 2 2 2 2 2 2 2 2 2 2 2 2 2 2 2 2 2 2 2 2 2 2 2 2 2 2 2 2 2 2 2 2 2 2 2 2 2 2 2 2 2 2 2 2 2 2 2 2 2 2 2 2 2 2 2 2 2 2 2 2 2 2 2 2 2 2 2 2 2 2 2 2 2 2 2 2 2 2 2 2 2 2 2 2 2 2 2 2 2 2 2 2 2 2 2 2 2 2 2 2 2 2 2 2 2 2 2 2 2 2 2 2 2 2 2 2 2 2 2 2 2 2 2 2 2 2 2 2 2 2
939
3	117 224 925 
3	321 924 925 
3	272 923 924 
1	923 
3	68 133 922 
3	265 921 922 
3	175 920 921 
3	131 919 920 
3	134 918 919 
3	26 917 918 
3	237 916 917 
3	146 915 916 
3	71 914 915 
3	261 913 914 
3	58 912 913 
3	171 911 912 
3	190 910 911 
3	269 909 910 
3	198 908 909 
3	40 907 908 
3	51 906 907 
3	104 905 906 
3	142 904 905 
3	129 903 904 
3	59 902 903 
3	132 901 902 
3	138 900 901 
3	14 899 900 
3	322 898 899 
3	49 897 898 
3	249 896 897 
3	332 895 896 
3	266 894 895 
3	94 893 894 
3	93 892 893 
3	13 891 892 
3	195 890 891 
3	25 889 890 
3	288 888 889 
3	20 887 888 
3	69 886 887 
3	294 885 886 
3	75 884 885 
3	144 883 884 
3	114 882 883 
3	2 881 882 
3	236 880 881 
3	311 879 880 
3	207 878 879 
3	44 877 878 
3	296 876 877 
3	33 875 876 
3	48 874 875 
3	78 873 874 
3	12 872 873 
3	218 871 872 
3	243 870 871 
3	205 869 870 
3	6 868 869 
3	123 867 868 
3	1 866 867 
3	176 865 866 
3	76 864 865 
3	121 863 864 
3	222 862 863 
3	53 861 862 
3	239 860 861 
3	41 859 860 
3	319 858 859 
3	202 857 858 
3	130 856 857 
3	216 855 856 
3	326 854 855 
3	264 853 854 
1	853 
3	165 250 852 
3	133 851 852 
3	0 850 851 
3	257 849 850 
3	214 848 849 
3	305 847 848 
3	164 846 847 
3	223 845 846 
3	50 844 845 
3	333 843 844 
3	329 842 843 
3	293 841 842 
3	312 840 841 
3	317 839 840 
3	110 838 839 
3	249 837 838 
3	206 836 837 
3	93 835 836 
3	13 834 835 
3	284 833 834 
3	248 832 833 
3	301 831 832 
3	21 830 831 
3	275 829 830 
3	233 828 829 
3	314 827 828 
3	185 826 827 
3	96 825 826 
3	197 824 825 
3	320 823 824 
3	278 822 823 
3	143 821 822 
3	270 820 821 
3	122 819 820 
3	12 818 819 
3	191 817 818 
3	217 816 817 
3	184 815 816 
3	194 814 815 
3	289 813 814 
3	295 812 813 
3	130 811 812 
3	183 810 811 
3	256 809 810 
3	230 808 809 
3	283 807 808 
3	192 806 807 
3	131 805 806 
3	247 804 805 
3	134 803 804 
3	26 802 803 
3	32 801 802 
3	124 800 801 
3	135 799 800 
3	304 798 799 
3	227 797 798 
3	196 796 797 
3	157 795 796 
3	212 794 795 
3	73 793 794 
3	322 792 793 
3	10 791 792 
3	285 790 791 
3	204 789 790 
3	225 788 789 
3	186 787 788 
3	195 786 787 
3	226 785 786 
3	328 784 785 
3	120 783 784 
3	181 782 783 
3	79 781 782 
3	258 780 781 
3	252 779 780 
3	15 778 779 
3	11 777 778 
3	63 776 777 
3	152 775 776 
3	280 774 775 
3	147 773 774 
3	202 772 773 
3	201 771 772 
3	211 770 771 
3	72 769 770 
3	188 768 769 
1	768 
3	83 100 767 
3	9 766 767 
3	148 765 766 
3	317 764 765 
3	22 763 764 
3	106 762 763 
3	209 761 762 
3	120 760 761 
3	291 759 760 
3	163 758 759 
3	321 757 758 
3	147 756 757 
3	124 755 756 
3	8 754 755 
3	56 753 754 
3	70 752 753 
3	226 751 752 
3	327 750 751 
1	750 
3	133 165 749 
3	257 748 749 
3	0 747 748 
3	214 746 747 
3	192 745 746 
3	247 744 745 
3	223 743 744 
3	146 742 743 
3	135 741 742 
3	124 740 741 
3	56 739 740 
3	329 738 739 
3	304 737 738 
3	229 736 737 
3	34 735 736 
3	171 734 735 
3	287 733 734 
3	99 732 733 
3	312 731 732 
3	227 730 731 
3	196 729 730 
3	317 728 729 
3	87 727 728 
3	110 726 727 
3	209 725 726 
3	212 724 725 
3	73 723 724 
3	204 722 723 
3	284 721 722 
3	226 720 721 
3	301 719 720 
3	21 718 719 
3	275 717 718 
3	233 716 717 
3	148 715 716 
3	300 714 715 
3	185 713 714 
3	181 712 713 
3	278 711 712 
3	122 710 711 
3	258 709 710 
3	252 708 709 
3	15 707 708 
3	11 706 707 
3	9 705 706 
3	63 704 705 
3	106 703 704 
3	286 702 703 
3	187 701 702 
3	194 700 701 
3	321 699 700 
3	152 698 699 
3	289 697 698 
3	147 696 697 
3	201 695 696 
3	211 694 695 
3	264 693 694 
3	188 692 693 
1	692 
3	8 117 691 
3	321 690 691 
3	34 689 690 
1	689 
3	61 141 688 
3	325 687 688 
3	107 686 687 
3	115 685 686 
3	292 684 685 
3	57 683 684 
3	88 682 683 
3	111 681 682 
3	113 680 681 
3	172 679 680 
3	98 678 679 
3	74 677 678 
3	150 676 677 
3	109 675 676 
3	312 674 675 
3	309 673 674 
3	215 672 673 
3	101 671 672 
3	232 670 671 
3	140 669 670 
3	23 668 669 
3	290 667 668 
3	7 666 667 
3	45 665 666 
3	166 664 665 
3	154 663 664 
3	27 662 663 
3	271 661 662 
3	92 660 661 
3	273 659 660 
3	177 658 659 
3	302 657 658 
3	180 656 657 
3	267 655 656 
3	149 654 655 
3	313 653 654 
3	324 652 653 
3	220 651 652 
3	118 650 651 
3	200 649 650 
3	167 648 649 
3	244 647 648 
3	28 646 647 
3	43 645 646 
3	35 644 645 
3	243 643 644 
3	281 642 643 
3	153 641 642 
3	217 640 641 
3	123 639 640 
3	65 638 639 
3	176 637 638 
3	121 636 637 
3	245 635 636 
3	126 634 635 
3	213 633 634 
3	42 632 633 
3	179 631 632 
3	55 630 631 
3	241 629 630 
3	116 628 629 
3	330 627 628 
3	279 626 627 
3	174 625 626 
3	29 624 625 
3	156 623 624 
3	253 622 623 
3	192 621 622 
3	39 620 621 
3	105 619 620 
3	103 618 619 
3	306 617 618 
3	64 616 617 
3	310 615 616 
3	129 614 615 
3	119 613 614 
3	231 612 613 
3	127 611 612 
3	259 610 611 
3	84 609 610 
3	81 608 609 
3	139 607 608 
3	16 606 607 
3	19 605 606 
3	308 604 605 
3	277 603 604 
3	36 602 603 
3	303 601 602 
3	219 600 601 
3	193 599 600 
3	240 598 599 
3	298 597 598 
3	91 596 597 
3	108 595 596 
3	334 594 595 
3	242 593 594 
3	148 592 593 
3	328 591 592 
3	160 590 591 
3	178 589 590 
3	234 588 589 
3	112 587 588 
3	85 586 587 
3	316 585 586 
3	62 584 585 
3	77 583 584 
3	263 582 583 
3	4 581 582 
3	54 580 581 
3	255 579 580 
3	208 578 579 
3	90 577 578 
3	95 576 577 
3	17 575 576 
3	205 574 575 
3	159 573 574 
3	260 572 573 
3	282 571 572 
3	5 570 571 
3	262 569 570 
3	155 568 569 
3	228 567 568 
3	136 566 567 
3	137 565 566 
3	162 564 565 
3	128 563 564 
1	563 
3	83 100 562 
3	9 561 562 
3	148 560 561 
3	317 559 560 
3	22 558 559 
3	106 557 558 
3	120 556 557 
3	209 555 556 
3	291 554 555 
3	163 553 554 
3	321 552 553 
3	147 551 552 
3	124 550 551 
3	8 549 550 
3	56 548 549 
3	70 547 548 
3	226 546 547 
3	327 545 546 
3	287 544 545 
1	544 
1	321 
3	99 286 543 
3	247 542 543 
3	329 541 542 
1	541 
3	133 165 540 
3	0 539 540 
3	257 538 539 
3	214 537 538 
3	192 536 537 
3	247 535 536 
3	223 534 535 
3	124 533 534 
3	135 532 533 
3	329 531 532 
3	304 530 531 
3	227 529 530 
3	312 528 529 
3	196 527 528 
3	317 526 527 
3	110 525 526 
3	212 524 525 
3	73 523 524 
3	204 522 523 
3	284 521 522 
3	226 520 521 
3	301 519 520 
3	21 518 519 
3	275 517 518 
3	233 516 517 
3	181 515 516 
3	278 514 515 
3	258 513 514 
3	122 512 513 
3	252 511 512 
3	15 510 511 
3	11 509 510 
3	63 508 509 
3	194 507 508 
3	152 506 507 
3	289 505 506 
3	147 504 505 
3	201 503 504 
3	211 502 503 
3	188 501 502 
1	501 
3	250 257 500 
3	80 499 500 
3	292 498 499 
3	146 497 498 
3	50 496 497 
3	57 495 496 
3	329 494 495 
3	109 493 494 
3	312 492 493 
3	215 491 492 
3	189 490 491 
3	138 489 490 
3	170 488 489 
3	158 487 488 
3	31 486 487 
3	251 485 486 
3	284 484 485 
3	301 483 484 
3	275 482 483 
3	233 481 482 
3	185 480 481 
3	300 479 480 
3	96 478 479 
3	296 477 478 
3	278 476 477 
3	117 475 476 
3	143 474 475 
3	123 473 474 
3	286 472 473 
3	106 471 472 
3	67 470 471 
3	18 469 470 
3	130 468 469 
3	183 467 468 
3	279 466 467 
3	131 465 466 
3	291 464 465 
3	235 463 464 
3	47 462 463 
3	86 461 462 
3	247 460 461 
3	134 459 460 
3	323 458 459 
3	105 457 458 
3	89 456 457 
3	135 455 456 
3	58 454 455 
3	304 453 454 
3	171 452 453 
3	190 451 452 
3	297 450 451 
3	99 449 450 
3	100 448 449 
3	196 447 448 
3	87 446 447 
3	14 445 446 
3	173 444 445 
3	73 443 444 
3	315 442 443 
3	274 441 442 
3	266 440 441 
3	225 439 440 
3	25 438 439 
3	70 437 438 
3	8 436 437 
3	226 435 436 
3	69 434 435 
3	182 433 434 
3	83 432 433 
3	234 431 432 
3	24 430 431 
3	120 429 430 
3	151 428 429 
3	299 427 428 
3	252 426 427 
3	11 425 426 
3	203 424 425 
3	76 423 424 
3	199 422 423 
3	152 421 422 
3	147 420 421 
3	307 419 420 
3	125 418 419 
3	264 417 418 
3	221 416 417 
3	165 415 416 
3	169 414 415 
3	133 413 414 
3	68 412 413 
3	0 411 412 
3	214 410 411 
3	305 409 410 
3	46 408 409 
3	223 407 408 
3	56 406 407 
3	261 405 406 
3	318 404 405 
3	34 403 404 
3	287 402 403 
3	317 401 402 
3	209 400 401 
3	110 399 400 
3	249 398 399 
3	161 397 398 
3	288 396 397 
3	246 395 396 
3	294 394 395 
3	21 393 394 
3	82 392 393 
3	149 391 392 
3	238 390 391 
3	320 389 390 
3	210 388 389 
3	38 387 388 
3	167 386 387 
3	270 385 386 
3	122 384 385 
3	191 383 384 
3	243 382 383 
3	217 381 382 
3	187 380 381 
3	184 379 380 
3	194 378 379 
3	163 377 378 
3	97 376 377 
3	321 375 376 
3	241 374 375 
3	289 373 374 
3	256 372 373 
3	145 371 372 
3	276 370 371 
3	283 369 370 
3	168 368 369 
3	192 367 368 
3	331 366 367 
3	254 365 366 
3	3 364 365 
3	26 363 364 
3	37 362 363 
3	32 361 362 
3	124 360 361 
3	229 359 360 
3	227 358 359 
3	22 357 358 
3	212 356 357 
3	322 355 356 
3	268 354 355 
3	204 353 354 
3	186 352 353 
3	148 351 352 
3	328 350 351 
3	181 349 350 
3	102 348 349 
3	66 347 348 
3	60 346 347 
3	52 345 346 
3	258 344 345 
3	17 343 344 
3	15 342 343 
3	9 341 342 
3	63 340 341 
3	30 339 340 
3	201 338 339 
3	211 337 338 
3	72 336 337 
3	188 335 336 
1	335 
1	250 
1	257 
1	175 
1	61 
1	325 
1	80 
1	237 
1	292 
1	50 
1	146 
1	57 
1	71 
1	329 
1	293 
1	269 
1	198 
1	109 
1	150 
1	312 
1	189 
1	215 
1	309 
1	101 
1	132 
1	138 
1	140 
1	158 
1	170 
1	45 
1	166 
1	31 
1	251 
1	284 
1	92 
1	248 
1	301 
1	275 
1	233 
1	300 
1	185 
1	224 
1	180 
1	96 
1	313 
1	44 
1	324 
1	220 
1	296 
1	200 
1	117 
1	278 
1	143 
1	12 
1	43 
1	35 
1	281 
1	153 
1	176 
1	123 
1	65 
1	106 
1	286 
1	222 
1	67 
1	18 
1	213 
1	55 
1	319 
1	295 
1	130 
1	183 
1	326 
1	330 
1	279 
1	29 
1	230 
1	327 
1	253 
1	131 
1	291 
1	47 
1	235 
1	86 
1	323 
1	247 
1	134 
1	105 
1	89 
1	135 
1	306 
1	58 
1	304 
1	171 
1	297 
1	190 
1	64 
1	100 
1	99 
1	310 
1	129 
1	231 
1	196 
1	127 
1	84 
1	87 
1	81 
1	14 
1	173 
1	73 
1	16 
1	315 
1	19 
1	274 
1	277 
1	266 
1	285 
1	10 
1	94 
1	225 
1	195 
1	25 
1	8 
1	70 
1	36 
1	226 
1	240 
1	91 
1	69 
1	182 
1	83 
1	75 
1	334 
1	144 
1	234 
1	120 
1	24 
1	112 
1	85 
1	316 
1	62 
1	311 
1	54 
1	255 
1	151 
1	48 
1	299 
1	252 
1	205 
1	6 
1	11 
1	159 
1	203 
1	76 
1	282 
1	5 
1	262 
1	199 
1	152 
1	41 
1	307 
1	147 
1	125 
1	264 
1	221 
1	165 
1	169 
1	133 
1	0 
1	68 
1	214 
1	141 
1	305 
1	164 
1	46 
1	223 
1	107 
1	115 
1	333 
1	56 
1	111 
1	88 
1	261 
1	318 
1	113 
1	172 
1	34 
1	98 
1	287 
1	74 
1	51 
1	104 
1	142 
1	317 
1	209 
1	110 
1	232 
1	49 
1	249 
1	23 
1	290 
1	7 
1	206 
1	332 
1	154 
1	27 
1	271 
1	93 
1	13 
1	161 
1	288 
1	246 
1	273 
1	294 
1	177 
1	21 
1	314 
1	82 
1	302 
1	267 
1	197 
1	238 
1	149 
1	272 
1	320 
1	210 
1	118 
1	33 
1	38 
1	167 
1	244 
1	270 
1	28 
1	122 
1	191 
1	243 
1	218 
1	217 
1	121 
1	53 
1	187 
1	184 
1	245 
1	97 
1	163 
1	194 
1	126 
1	321 
1	42 
1	239 
1	179 
1	241 
1	289 
1	116 
1	256 
1	174 
1	145 
1	283 
1	276 
1	156 
1	168 
1	265 
1	192 
1	331 
1	254 
1	39 
1	3 
1	26 
1	37 
1	32 
1	124 
1	103 
1	229 
1	40 
1	227 
1	59 
1	119 
1	259 
1	22 
1	157 
1	139 
1	212 
1	322 
1	268 
1	308 
1	204 
1	186 
1	303 
1	219 
1	193 
1	298 
1	20 
1	108 
1	242 
1	148 
1	328 
1	160 
1	178 
1	181 
1	77 
1	114 
1	263 
1	102 
1	79 
1	2 
1	236 
1	60 
1	66 
1	207 
1	4 
1	52 
1	78 
1	208 
1	90 
1	95 
1	258 
1	17 
1	15 
1	9 
1	1 
1	63 
1	260 
1	280 
1	155 
1	30 
1	202 
1	228 
1	216 
1	201 
1	136 
1	211 
1	137 
1	162 
1	128 
1	72 
1	188 
0	

8
 1 0 0.5 0.5 0.3 0.7 0.15 0.85
8
 1 0 0 1 0.05 0 0.95 1
8
 1 0 0 1 0.5 0 0.5 1
2
 0.03 1
8
 1 0 0.1 0.9 0.5 0.5 0.05 0.95
8
 1 0 0 1 0.5 0 0.5 1
8
 1 0 0 1 0.1 0 0.9 1
8
 1 0 0 1 0.1 0 0.9 1
8
 1 0 0 1 0.1 0 0.9 1
8
 1 0 0 1 0.09 0 0.91 1
8
 1 0 0 1 0.5 0 0.5 1
8
 1 0 0 1 0.01 0 0.99 1
8
 1 0 0 1 0.95 0 0.05 1
8
 1 0 0 1 0.5 0 0.5 1
8
 1 0 0 1 0.19 0 0.81 1
8
 1 0 0 1 0.01 0 0.99 1
8
 1 0 0 1 0.01 0 0.99 1
8
 1 0 0 1 0.09 0 0.91 1
8
 1 0 0 1 0.5 0 0.5 1
8
 1 0 0 1 0.01 0 0.99 1
8
 1 0 0 1 0.1 0 0.9 1
8
 1 0 0 1 0.05 0 0.95 1
8
 1 0 0 1 0.1 0 0.9 1
8
 1 0 0 1 0.19 0 0.81 1
8
 1 0 0 1 0.19 0 0.81 1
8
 1 0 0 1 0.1 0 0.9 1
8
 1 0 0 1 0.05 0 0.95 1
8
 1 0 0 1 0.5 0 0.5 1
8
 1 0 0 1 0.05 0 0.95 1
8
 1 0 0 1 0.01 0 0.99 1
8
 1 0 0 1 0.5 0 0.5 1
8
 1 0 0 1 0.2 0 0.8 1
8
 1 0 0 1 0.1 0 0.9 1
8
 1 0 0 1 0.5 0 0.5 1
8
 1 0 0 1 0.5 0 0.5 1
8
 1 0 0 1 0.95 0 0.05 1
8
 1 0 0 1 0.89 0 0.11 1
8
 1 0 0 1 0.5 0 0.5 1
8
 1 0 0 1 0.5 0 0.5 1
8
 1 0 0 1 0.01 0 0.99 1
8
 1 0 0 1 0.5 0 0.5 1
8
 1 0 0 1 0.2 0 0.8 1
8
 1 0 0 1 0.5 0 0.5 1
8
 1 0 0 1 0.5 0 0.5 1
8
 1 0 0 1 0.09 0 0.91 1
8
 1 0 0 1 0.19 0 0.81 1
8
 1 0 0 1 0.5 0 0.5 1
8
 1 0 0 1 0.09 0 0.91 1
8
 1 0 0 1 0.5 0 0.5 1
8
 1 0 0 1 0.59 0 0.41 1
8
 1 0 0 1 0.5 0 0.5 1
8
 1 0 0 1 0.1 0 0.9 1
8
 1 0 0 1 0.1 0 0.9 1
8
 1 0 0 1 0.01 0 0.99 1
8
 1 0 0 1 0.3 0 0.7 1
8
 1 0 0 1 0.1 0 0.9 1
8
 1 0 0 1 0.5 0 0.5 1
8
 1 0 0 1 0.5 0 0.5 1
8
 1 0 0 1 0.19 0 0.81 1
8
 1 0 0 1 0.5 0 0.5 1
8
 1 0 0 1 0.19 0 0.81 1
8
 1 0 0 1 0.09 0 0.91 1
8
 1 0 0 1 0.1 0 0.9 1
8
 1 0 0 1 0.5 0 0.5 1
8
 1 0 0 1 0.5 0 0.5 1
8
 1 0 0 1 0.59 0 0.41 1
8
 1 0 0 1 0.05 0 0.95 1
8
 1 0 0 1 0.19 0 0.81 1
8
 1 0 0 1 0.05 0 0.95 1
8
 1 0 0 1 0.2 0 0.8 1
8
 1 0 0 1 0.1 0 0.9 1
8
 1 0 0 1 0.5 0 0.5 1
8
 1 0 0 1 0.5 0 0.5 1
8
 1 0 0 1 0.1 0 0.9 1
2
 0.03 1
8
 1 0 0.9 0.1 0.05 0.95 0.045 0.955
8
 1 0 0 1 0.9 0 0.1 1
8
 1 0 0 1 0.05 0 0.95 1
8
 1 0 0 1 0.05 0 0.95 1
8
 1 0 0 1 0.05 0 0.95 1
8
 1 0 0 1 0.9 0 0.1 1
8
 1 0 0 1 0.3 0 0.7 1
8
 1 0 0 1 0.1 0 0.9 1
8
 1 0 0 1 0.9 0 0.1 1
8
 1 0 0 1 0.3 0 0.7 1
8
 1 0 0 1 0.05 0 0.95 1
8
 1 0 0 1 0.3 0 0.7 1
8
 1 0 0 1 0.05 0 0.95 1
8
 1 0 0 1 0.05 0 0.95 1
8
 1 0 0 1 0.05 0 0.95 1
8
 1 0 0 1 0.5 0 0.5 1
8
 1 0 0 1 0.3 0 0.7 1
8
 1 0 0 1 0.5 0 0.5 1
8
 1 0 0 1 0.9 0 0.1 1
8
 1 0 0 1 0.05 0 0.95 1
8
 1 0 0 1 0.3 0 0.7 1
8
 1 0 0 1 0.05 0 0.95 1
8
 1 0 0 1 0.05 0 0.95 1
8
 1 0 0 1 0.05 0 0.95 1
8
 1 0 0 1 0.05 0 0.95 1
8
 1 0 0 1 0.5 0 0.5 1
8
 1 0 0 1 0.4 0 0.6 1
8
 1 0 0 1 0.9 0 0.1 1
8
 1 0 0 1 0.5 0 0.5 1
8
 1 0 0 1 0.7 0 0.3 1
8
 1 0 0 1 0.01 0 0.99 1
8
 1 0 0 1 0.9 0 0.1 1
8
 1 0 0 1 0.9 0 0.1 1
8
 1 0 0 1 0.05 0 0.95 1
8
 1 0 0 1 0.4 0 0.6 1
8
 1 0 0 1 0.9 0 0.1 1
8
 1 0 0 1 0.9 0 0.1 1
8
 1 0 0 1 0.75 0 0.25 1
8
 1 0 0 1 0.05 0 0.95 1
8
 1 0 0 1 0.05 0 0.95 1
8
 1 0 0 1 0.3 0 0.7 1
8
 1 0 0 1 0.9 0 0.1 1
8
 1 0 0 1 0.5 0 0.5 1
8
 1 0 0 1 0.9 0 0.1 1
8
 1 0 0 1 0.3 0 0.7 1
8
 1 0 0 1 0.5 0 0.5 1
8
 1 0 0 1 0.05 0 0.95 1
8
 1 0 0 1 0.9 0 0.1 1
8
 1 0 0 1 0.5 0 0.5 1
8
 1 0 0 1 0.9 0 0.1 1
8
 1 0 0 1 0.9 0 0.1 1
8
 1 0 0 1 0.9 0 0.1 1
8
 1 0 0 1 0.05 0 0.95 1
8
 1 0 0 1 0.05 0 0.95 1
8
 1 0 0 1 0.05 0 0.95 1
8
 1 0 0 1 0.05 0 0.95 1
8
 1 0 0 1 0.05 0 0.95 1
8
 1 0 0 1 0.3 0 0.7 1
8
 1 0 0 1 0.05 0 0.95 1
8
 1 0 0 1 0.05 0 0.95 1
8
 1 0 0 1 0.9 0 0.1 1
8
 1 0 0 1 0.3 0 0.7 1
8
 1 0 0 1 0.5 0 0.5 1
8
 1 0 0 1 0.05 0 0.95 1
8
 1 0 0 1 0.1 0 0.9 1
8
 1 0 0 1 0.9 0 0.1 1
8
 1 0 0 1 0.89 0 0.11 1
8
 1 0 0 1 0.05 0 0.95 1
8
 1 0 0 1 0.9 0 0.1 1
8
 1 0 0 1 0.89 0 0.11 1
8
 1 0 0 1 0.05 0 0.95 1
8
 1 0 0 1 0.09 0 0.91 1
8
 1 0 0 1 0.05 0 0.95 1
8
 1 0 0 1 0.02 0 0.98 1
8
 1 0 0 1 0.05 0 0.95 1
8
 1 0 0 1 0.2 0 0.8 1
8
 1 0 0 1 0.05 0 0.95 1
8
 1 0 0 1 0.05 0 0.95 1
8
 1 0 0 1 0.3 0 0.7 1
8
 1 0 0 1 0.05 0 0.95 1
8
 1 0 0 1 0.4 0 0.6 1
8
 1 0 0 1 0.05 0 0.95 1
8
 1 0 0 1 0.05 0 0.95 1
8
 1 0 0 1 0.9 0 0.1 1
8
 1 0 0 1 0.05 0 0.95 1
2
 0.03 1
8
 1 0 0.57 0.43 0.5 0.5 0.285 0.715
8
 1 0 0 1 0.1 0 0.9 1
8
 1 0 0 1 0 0 1 1
8
 1 0 0 1 0.09 0 0.91 1
8
 1 0 0 1 0.5 0 0.5 1
8
 1 0 0 1 0.1 0 0.9 1
8
 1 0 0 1 0 0 1 1
8
 1 0 0 1 0.5 0 0.5 1
8
 1 0 0 1 0.5 0 0.5 1
8
 1 0 0 1 0.5 0 0.5 1
8
 1 0 0 1 0 0 1 1
8
 1 0 0 1 0.01 0 0.99 1
8
 1 0 0 1 0.5 0 0.5 1
8
 1 0 0 1 0.5 0 0.5 1
8
 1 0 0 1 0 0 1 1
8
 1 0 0 1 0.4 0 0.6 1
8
 1 0 0 1 0.1 0 0.9 1
8
 1 0 0 1 0.01 0 0.99 1
2
 0.03 1
8
 1 0 0 1 0 1 0 1
8
 1 0 0 1 0 0 1 1
8
 1 0 0 1 0 0 1 1
8
 1 0 0 1 0 0 1 1
8
 1 0 0 1 0 0 1 1
8
 1 0 0 1 0 0 1 1
8
 1 0 0 1 0 0 1 1
8
 1 0 0 1 0 0 1 1
8
 1 0 0 1 0 0 1 1
8
 1 0 0 1 0 0 1 1
8
 1 0 0 1 0 0 1 1
8
 1 0 0 1 0 0 1 1
8
 1 0 0 1 0 0 1 1
8
 1 0 0 1 0 0 1 1
8
 1 0 0 1 0 0 1 1
8
 1 0 0 1 0 0 1 1
8
 1 0 0 1 0 0 1 1
8
 1 0 0 1 0 0 1 1
8
 1 0 0 1 0 0 1 1
8
 1 0 0 1 0 0 1 1
8
 1 0 0 1 0 0 1 1
8
 1 0 0 1 0 0 1 1
8
 1 0 0 1 0 0 1 1
8
 1 0 0 1 0 0 1 1
8
 1 0 0 1 0 0 1 1
8
 1 0 0 1 0 0 1 1
8
 1 0 0 1 0 0 1 1
8
 1 0 0 1 0 0 1 1
8
 1 0 0 1 0 0 1 1
8
 1 0 0 1 0 0 1 1
8
 1 0 0 1 0 0 1 1
8
 1 0 0 1 0 0 1 1
8
 1 0 0 1 0 0 1 1
8
 1 0 0 1 0 0 1 1
8
 1 0 0 1 0 0 1 1
8
 1 0 0 1 0 0 1 1
8
 1 0 0 1 0 0 1 1
8
 1 0 0 1 0 0 1 1
8
 1 0 0 1 0 0 1 1
8
 1 0 0 1 0 0 1 1
8
 1 0 0 1 0 0 1 1
8
 1 0 0 1 0 0 1 1
8
 1 0 0 1 0 0 1 1
8
 1 0 0 1 0 0 1 1
8
 1 0 0 1 0 0 1 1
8
 1 0 0 1 0 0 1 1
8
 1 0 0 1 0 0 1 1
8
 1 0 0 1 0 0 1 1
8
 1 0 0 1 0 0 1 1
8
 1 0 0 1 0 0 1 1
8
 1 0 0 1 0 0 1 1
8
 1 0 0 1 0 0 1 1
8
 1 0 0 1 0 0 1 1
8
 1 0 0 1 0 0 1 1
8
 1 0 0 1 0 0 1 1
8
 1 0 0 1 0 0 1 1
8
 1 0 0 1 0 0 1 1
8
 1 0 0 1 0 0 1 1
2
 0.03 1
8
 1 0 0.3 0.7 0.5 0.5 0.15 0.85
8
 1 0 0 1 0 0 1 1
8
 1 0 0 1 0.01 0 0.99 1
2
 0.03 1
8
 1 0 0.5 0.5 0.5 0.5 0.25 0.75
8
 1 0 0 1 0.89 0 0.11 1
8
 1 0 0 1 0.2 0 0.8 1
8
 1 0 0 1 0.5 0 0.5 1
8
 1 0 0 1 0.8 0 0.2 1
8
 1 0 0 1 0.8 0 0.2 1
8
 1 0 0 1 0.2 0 0.8 1
8
 1 0 0 1 0.4 0 0.6 1
8
 1 0 0 1 0.89 0 0.11 1
8
 1 0 0 1 0.5 0 0.5 1
8
 1 0 0 1 0.89 0 0.11 1
8
 1 0 0 1 0.8 0 0.2 1
8
 1 0 0 1 0.5 0 0.5 1
8
 1 0 0 1 0.8 0 0.2 1
8
 1 0 0 1 0.89 0 0.11 1
8
 1 0 0 1 0.9 0 0.1 1
8
 1 0 0 1 0.89 0 0.11 1
8
 1 0 0 1 0.2 0 0.8 1
8
 1 0 0 1 0.4 0 0.6 1
8
 1 0 0 1 0.98 0 0.02 1
8
 1 0 0 1 0.1 0 0.9 1
8
 1 0 0 1 0.5 0 0.5 1
8
 1 0 0 1 0.2 0 0.8 1
8
 1 0 0 1 0.3 0 0.7 1
8
 1 0 0 1 0.9 0 0.1 1
8
 1 0 0 1 0.5 0 0.5 1
8
 1 0 0 1 0.5 0 0.5 1
8
 1 0 0 1 0.1 0 0.9 1
8
 1 0 0 1 0.9 0 0.1 1
8
 1 0 0 1 0.5 0 0.5 1
8
 1 0 0 1 0.89 0 0.11 1
8
 1 0 0 1 0.9 0 0.1 1
8
 1 0 0 1 0.2 0 0.8 1
8
 1 0 0 1 0.2 0 0.8 1
8
 1 0 0 1 0.8 0 0.2 1
8
 1 0 0 1 0.92 0 0.08 1
8
 1 0 0 1 0.5 0 0.5 1
8
 1 0 0 1 0.4 0 0.6 1
8
 1 0 0 1 0.2 0 0.8 1
8
 1 0 0 1 0.9 0 0.1 1
8
 1 0 0 1 0.01 0 0.99 1
8
 1 0 0 1 0.5 0 0.5 1
8
 1 0 0 1 0.5 0 0.5 1
8
 1 0 0 1 0.8 0 0.2 1
8
 1 0 0 1 0.8 0 0.2 1
8
 1 0 0 1 0.5 0 0.5 1
8
 1 0 0 1 0.3 0 0.7 1
8
 1 0 0 1 0.1 0 0.9 1
8
 1 0 0 1 0.9 0 0.1 1
8
 1 0 0 1 0.5 0 0.5 1
8
 1 0 0 1 0.89 0 0.11 1
8
 1 0 0 1 0.1 0 0.9 1
8
 1 0 0 1 0.5 0 0.5 1
8
 1 0 0 1 0.5 0 0.5 1
8
 1 0 0 1 0.4 0 0.6 1
8
 1 0 0 1 0.6 0 0.4 1
8
 1 0 0 1 0.89 0 0.11 1
8
 1 0 0 1 0.09 0 0.91 1
8
 1 0 0 1 0.3 0 0.7 1
8
 1 0 0 1 0.8 0 0.2 1
8
 1 0 0 1 0.9 0 0.1 1
8
 1 0 0 1 0.8 0 0.2 1
8
 1 0 0 1 0.8 0 0.2 1
8
 1 0 0 1 0.8 0 0.2 1
8
 1 0 0 1 0.1 0 0.9 1
8
 1 0 0 1 0.5 0 0.5 1
8
 1 0 0 1 0.5 0 0.5 1
8
 1 0 0 1 0.89 0 0.11 1
8
 1 0 0 1 0.5 0 0.5 1
8
 1 0 0 1 0.5 0 0.5 1
8
 1 0 0 1 0.5 0 0.5 1
8
 1 0 0 1 0.5 0 0.5 1
8
 1 0 0 1 0.5 0 0.5 1
8
 1 0 0 1 0.5 0 0.5 1
8
 1 0 0 1 0.9 0 0.1 1
8
 1 0 0 1 0.5 0 0.5 1
8
 1 0 0 1 0.59 0 0.41 1
8
 1 0 0 1 0.17 0 0.83 1
8
 1 0 0 1 0.9 0 0.1 1
8
 1 0 0 1 0.7 0 0.3 1
8
 1 0 0 1 0.4 0 0.6 1
8
 1 0 0 1 0.5 0 0.5 1
8
 1 0 0 1 0.5 0 0.5 1
8
 1 0 0 1 0.2 0 0.8 1
8
 1 0 0 1 0.2 0 0.8 1
8
 1 0 0 1 0.8 0 0.2 1
8
 1 0 0 1 0.1 0 0.9 1
8
 1 0 0 1 0.1 0 0.9 1
8
 1 0 0 1 0.5 0 0.5 1
8
 1 0 0 1 0.5 0 0.5 1
8
 1 0 0 1 0.8 0 0.2 1
8
 1 0 0 1 0.5 0 0.5 1
8
 1 0 0 1 0.5 0 0.5 1
8
 1 0 0 1 0.5 0 0.5 1
8
 1 0 0 1 0.9 0 0.1 1
8
 1 0 0 1 0.89 0 0.11 1
8
 1 0 0 1 0.9 0 0.1 1
8
 1 0 0 1 0.9 0 0.1 1
8
 1 0 0 1 0.9 0 0.1 1
8
 1 0 0 1 0.9 0 0.1 1
8
 1 0 0 1 0.89 0 0.11 1
8
 1 0 0 1 0.5 0 0.5 1
8
 1 0 0 1 0.5 0 0.5 1
8
 1 0 0 1 0.09 0 0.91 1
8
 1 0 0 1 0.9 0 0.1 1
8
 1 0 0 1 0.2 0 0.8 1
8
 1 0 0 1 0.2 0 0.8 1
8
 1 0 0 1 0.3 0 0.7 1
8
 1 0 0 1 0.9 0 0.1 1
8
 1 0 0 1 0.9 0 0.1 1
8
 1 0 0 1 0.9 0 0.1 1
8
 1 0 0 1 0.5 0 0.5 1
8
 1 0 0 1 0 0 1 1
8
 1 0 0 1 0.8 0 0.2 1
8
 1 0 0 1 0.5 0 0.5 1
8
 1 0 0 1 0.89 0 0.11 1
8
 1 0 0 1 0.5 0 0.5 1
8
 1 0 0 1 0.89 0 0.11 1
8
 1 0 0 1 0.5 0 0.5 1
8
 1 0 0 1 0.89 0 0.11 1
8
 1 0 0 1 0.9 0 0.1 1
8
 1 0 0 1 0.3 0 0.7 1
8
 1 0 0 1 0.5 0 0.5 1
8
 1 0 0 1 0.89 0 0.11 1
8
 1 0 0 1 0.5 0 0.5 1
8
 1 0 0 1 0.7 0 0.3 1
2
 0.03 1
8
 1 0 0.57 0.43 0.5 0.5 0.285 0.715
8
 1 0 0 1 0.1 0 0.9 1
8
 1 0 0 1 0.01 0 0.99 1
8
 1 0 0 1 0.09 0 0.91 1
8
 1 0 0 1 0.5 0 0.5 1
8
 1 0 0 1 0.1 0 0.9 1
8
 1 0 0 1 0.5 0 0.5 1
8
 1 0 0 1 0.01 0 0.99 1
8
 1 0 0 1 0.5 0 0.5 1
8
 1 0 0 1 0.5 0 0.5 1
8
 1 0 0 1 0.05 0 0.95 1
8
 1 0 0 1 0.01 0 0.99 1
8
 1 0 0 1 0.5 0 0.5 1
8
 1 0 0 1 0.5 0 0.5 1
8
 1 0 0 1 0.01 0 0.99 1
8
 1 0 0 1 0.4 0 0.6 1
8
 1 0 0 1 0.1 0 0.9 1
8
 1 0 0 1 0.01 0 0.99 1
8
 1 0 0 1 0.2 0 0.8 1
2
 0.03 1
2
 0 0.95
8
 1 0 0 1 0 1 0 1
8
 1 0 0 1 0 0 1 1
8
 1 0 0 1 0 0 1 1
2
 0.03 1
8
 1 0 0.05 0.95 0.05 0.95 0.0025 0.9975
8
 1 0 0 1 0.05 0 0.95 1
8
 1 0 0 1 0.05 0 0.95 1
8
 1 0 0 1 0.05 0 0.95 1
8
 1 0 0 1 0.05 0 0.95 1
8
 1 0 0 1 0.05 0 0.95 1
8
 1 0 0 1 0.05 0 0.95 1
8
 1 0 0 1 0.05 0 0.95 1
8
 1 0 0 1 0.05 0 0.95 1
8
 1 0 0 1 0.05 0 0.95 1
8
 1 0 0 1 0.05 0 0.95 1
8
 1 0 0 1 0.05 0 0.95 1
8
 1 0 0 1 0.05 0 0.95 1
8
 1 0 0 1 0.05 0 0.95 1
8
 1 0 0 1 0.05 0 0.95 1
8
 1 0 0 1 0.05 0 0.95 1
8
 1 0 0 1 0.05 0 0.95 1
8
 1 0 0 1 0.05 0 0.95 1
8
 1 0 0 1 0.05 0 0.95 1
8
 1 0 0 1 0.05 0 0.95 1
8
 1 0 0 1 0.05 0 0.95 1
8
 1 0 0 1 0.05 0 0.95 1
8
 1 0 0 1 0.05 0 0.95 1
8
 1 0 0 1 0.05 0 0.95 1
8
 1 0 0 1 0.05 0 0.95 1
8
 1 0 0 1 0.05 0 0.95 1
8
 1 0 0 1 0.05 0 0.95 1
8
 1 0 0 1 0.05 0 0.95 1
8
 1 0 0 1 0.05 0 0.95 1
8
 1 0 0 1 0.05 0 0.95 1
8
 1 0 0 1 0.05 0 0.95 1
8
 1 0 0 1 0.05 0 0.95 1
8
 1 0 0 1 0.05 0 0.95 1
8
 1 0 0 1 0.05 0 0.95 1
8
 1 0 0 1 0.05 0 0.95 1
8
 1 0 0 1 0.05 0 0.95 1
8
 1 0 0 1 0.05 0 0.95 1
8
 1 0 0 1 0.05 0 0.95 1
8
 1 0 0 1 0.05 0 0.95 1
8
 1 0 0 1 0.05 0 0.95 1
2
 0.03 1
8
 1 0 0 1 0.9 0.1 0 1
8
 1 0 0 1 0.2 0 0.8 1
8
 1 0 0 1 0.5 0 0.5 1
8
 1 0 0 1 0 0 1 1
8
 1 0 0 1 0.9 0 0.1 1
8
 1 0 0 1 0.5 0 0.5 1
8
 1 0 0 1 0.89 0 0.11 1
8
 1 0 0 1 0.5 0 0.5 1
8
 1 0 0 1 0 0 1 1
8
 1 0 0 1 0.89 0 0.11 1
8
 1 0 0 1 0.5 0 0.5 1
8
 1 0 0 1 0.2 0 0.8 1
8
 1 0 0 1 0.1 0 0.9 1
8
 1 0 0 1 0.5 0 0.5 1
8
 1 0 0 1 0.5 0 0.5 1
8
 1 0 0 1 0.1 0 0.9 1
8
 1 0 0 1 0 0 1 1
8
 1 0 0 1 0.5 0 0.5 1
8
 1 0 0 1 0.01 0 0.99 1
8
 1 0 0 1 0 0 1 1
8
 1 0 0 1 0 0 1 1
8
 1 0 0 1 0 0 1 1
8
 1 0 0 1 0.9 0 0.1 1
8
 1 0 0 1 0.5 0 0.5 1
8
 1 0 0 1 0 0 1 1
8
 1 0 0 1 0.5 0 0.5 1
8
 1 0 0 1 0.9 0 0.1 1
8
 1 0 0 1 0.5 0 0.5 1
8
 1 0 0 1 0.1 0 0.9 1
8
 1 0 0 1 0 0 1 1
8
 1 0 0 1 0.1 0 0.9 1
8
 1 0 0 1 0.5 0 0.5 1
8
 1 0 0 1 0.9 0 0.1 1
8
 1 0 0 1 0.5 0 0.5 1
8
 1 0 0 1 0.5 0 0.5 1
8
 1 0 0 1 0.9 0 0.1 1
8
 1 0 0 1 0.09 0 0.91 1
8
 1 0 0 1 0.5 0 0.5 1
8
 1 0 0 1 0.1 0 0.9 1
8
 1 0 0 1 0.5 0 0.5 1
8
 1 0 0 1 0.5 0 0.5 1
8
 1 0 0 1 0.9 0 0.1 1
8
 1 0 0 1 0.09 0 0.91 1
8
 1 0 0 1 0.5 0 0.5 1
8
 1 0 0 1 0.5 0 0.5 1
8
 1 0 0 1 0 0 1 1
8
 1 0 0 1 0.5 0 0.5 1
8
 1 0 0 1 0 0 1 1
8
 1 0 0 1 0 0 1 1
8
 1 0 0 1 0.5 0 0.5 1
8
 1 0 0 1 0.1 0 0.9 1
8
 1 0 0 1 0.5 0 0.5 1
8
 1 0 0 1 0.57 0 0.43 1
8
 1 0 0 1 0 0 1 1
8
 1 0 0 1 0 0 1 1
8
 1 0 0 1 0.5 0 0.5 1
8
 1 0 0 1 0.5 0 0.5 1
8
 1 0 0 1 0 0 1 1
8
 1 0 0 1 0.5 0 0.5 1
8
 1 0 0 1 0.1 0 0.9 1
8
 1 0 0 1 0.5 0 0.5 1
8
 1 0 0 1 0.1 0 0.9 1
8
 1 0 0 1 0.5 0 0.5 1
8
 1 0 0 1 0.4 0 0.6 1
8
 1 0 0 1 0.5 0 0.5 1
8
 1 0 0 1 0 0 1 1
8
 1 0 0 1 0.5 0 0.5 1
8
 1 0 0 1 0.9 0 0.1 1
8
 1 0 0 1 0.5 0 0.5 1
8
 1 0 0 1 0.89 0 0.11 1
8
 1 0 0 1 0.5 0 0.5 1
8
 1 0 0 1 0.5 0 0.5 1
8
 1 0 0 1 0.5 0 0.5 1
8
 1 0 0 1 0.5 0 0.5 1
8
 1 0 0 1 0 0 1 1
8
 1 0 0 1 0.6 0 0.4 1
8
 1 0 0 1 0.5 0 0.5 1
8
 1 0 0 1 0.1 0 0.9 1
8
 1 0 0 1 0.5 0 0.5 1
8
 1 0 0 1 0 0 1 1
8
 1 0 0 1 0 0 1 1
8
 1 0 0 1 0.1 0 0.9 1
8
 1 0 0 1 0.59 0 0.41 1
8
 1 0 0 1 0 0 1 1
8
 1 0 0 1 0.4 0 0.6 1
8
 1 0 0 1 0 0 1 1
8
 1 0 0 1 0.5 0 0.5 1
8
 1 0 0 1 0.9 0 0.1 1
8
 1 0 0 1 0.5 0 0.5 1
8
 1 0 0 1 0 0 1 1
8
 1 0 0 1 0 0 1 1
8
 1 0 0 1 0.9 0 0.1 1
8
 1 0 0 1 0.5 0 0.5 1
8
 1 0 0 1 0.1 0 0.9 1
8
 1 0 0 1 0 0 1 1
8
 1 0 0 1 0.5 0 0.5 1
8
 1 0 0 1 0.09 0 0.91 1
8
 1 0 0 1 0 0 1 1
8
 1 0 0 1 0 0 1 1
8
 1 0 0 1 0 0 1 1
8
 1 0 0 1 0 0 1 1
8
 1 0 0 1 0 0 1 1
8
 1 0 0 1 0.5 0 0.5 1
8
 1 0 0 1 0.5 0 0.5 1
8
 1 0 0 1 0.5 0 0.5 1
8
 1 0 0 1 0.5 0 0.5 1
8
 1 0 0 1 0.5 0 0.5 1
8
 1 0 0 1 0 0 1 1
8
 1 0 0 1 0.5 0 0.5 1
8
 1 0 0 1 0.4 0 0.6 1
8
 1 0 0 1 0.5 0 0.5 1
8
 1 0 0 1 0.7 0 0.3 1
8
 1 0 0 1 0.5 0 0.5 1
8
 1 0 0 1 0.89 0 0.11 1
8
 1 0 0 1 0.5 0 0.5 1
8
 1 0 0 1 0.9 0 0.1 1
8
 1 0 0 1 0 0 1 1
8
 1 0 0 1 0.9 0 0.1 1
8
 1 0 0 1 0.5 0 0.5 1
8
 1 0 0 1 0.5 0 0.5 1
8
 1 0 0 1 0 0 1 1
8
 1 0 0 1 0.75 0 0.25 1
8
 1 0 0 1 0 0 1 1
8
 1 0 0 1 0.09 0 0.91 1
8
 1 0 0 1 0.5 0 0.5 1
8
 1 0 0 1 0 0 1 1
8
 1 0 0 1 0.5 0 0.5 1
8
 1 0 0 1 0 0 1 1
8
 1 0 0 1 0.9 0 0.1 1
8
 1 0 0 1 0.7 0 0.3 1
8
 1 0 0 1 0.4 0 0.6 1
8
 1 0 0 1 0.5 0 0.5 1
8
 1 0 0 1 0.1 0 0.9 1
8
 1 0 0 1 0 0 1 1
8
 1 0 0 1 0.6 0 0.4 1
8
 1 0 0 1 0.5 0 0.5 1
8
 1 0 0 1 0.4 0 0.6 1
8
 1 0 0 1 0.9 0 0.1 1
8
 1 0 0 1 0.5 0 0.5 1
8
 1 0 0 1 0.9 0 0.1 1
8
 1 0 0 1 0 0 1 1
8
 1 0 0 1 0 0 1 1
8
 1 0 0 1 0 0 1 1
8
 1 0 0 1 0.09 0 0.91 1
8
 1 0 0 1 0 0 1 1
8
 1 0 0 1 0.9 0 0.1 1
8
 1 0 0 1 0.5 0 0.5 1
8
 1 0 0 1 0 0 1 1
8
 1 0 0 1 0.9 0 0.1 1
8
 1 0 0 1 0 0 1 1
8
 1 0 0 1 0.9 0 0.1 1
8
 1 0 0 1 0 0 1 1
8
 1 0 0 1 0.05 0 0.95 1
8
 1 0 0 1 0.5 0 0.5 1
8
 1 0 0 1 0.5 0 0.5 1
8
 1 0 0 1 0.5 0 0.5 1
8
 1 0 0 1 0 0 1 1
8
 1 0 0 1 0.5 0 0.5 1
8
 1 0 0 1 0 0 1 1
8
 1 0 0 1 0.1 0 0.9 1
8
 1 0 0 1 0 0 1 1
8
 1 0 0 1 0.5 0 0.5 1
8
 1 0 0 1 0 0 1 1
8
 1 0 0 1 0 0 1 1
8
 1 0 0 1 0.9 0 0.1 1
8
 1 0 0 1 0.01 0 0.99 1
2
 0.03 1
2
 0.9995 0.0005
2
 0.99995 5e-05
2
 0.99968 0.00032
2
 1 1.8e-07
2
 0.9999 0.0001
2
 0.999995 5e-06
2
 0.9986 0.0014
2
 0.99999 1e-05
2
 0.99975 0.00025
2
 0.999 0.001
2
 0.99999 1e-05
2
 0.9998 0.0002
2
 0.99995 5e-05
2
 0.9999 0.0001
2
 0.9998 0.0002
2
 0.99991 9e-05
2
 0.99999 1e-05
2
 0.99942 0.00058
2
 0.9999 0.0001
2
 0.99975 0.00025
2
 0.9999 0.0001
2
 1 1.1e-07
2
 0.999998 2e-06
2
 0.9999 0.0001
2
 0.9999 0.0001
2
 0.9995 0.0005
2
 0.99989 0.00011
2
 0.999999 1e-06
2
 0.999995 5.26e-06
2
 0.999943 5.69e-05
2
 0.9999 0.0001
2
 0.9999 0.0001
2
 0.9999 0.0001
2
 0.9999 0.0001
2
 0.9999 0.0001
2
 0.99998 2e-05
2
 0.99999 1e-05
2
 0.9999 0.0001
2
 0.998 0.002
2
 0.99995 5e-05
2
 0.99992 8e-05
2
 1 6e-08
2
 0.999998 2e-06
2
 1 1e-08
2
 0.999999 1e-06
2
 0.99988 0.00012
2
 0.9999 0.0001
2
 0.99989 0.00011
2
 0.99809 0.00191
2
 0.9999 0.0001
2
 0.99995 5e-05
2
 0.99996 4e-05
2
 0.99982 0.00018
2
 0.999999 1e-06
2
 0.999995 5.24e-06
2
 0.99999 1e-05
2
 0.999999 1.26e-06
2
 0.99996 4e-05
2
 0.99981 0.00019
2
 0.9999 0.0001
2
 0.99998 2e-05
2
 0.9999 0.0001
2
 0.9999 0.0001
2
 0.9999 0.0001
2
 0.9999 0.0001
2
 1 1e-08
2
 0.999991 8.64e-06
2
 0.9999 0.0001
2
 0.9991 0.0009
2
 0.99992 8e-05
2
 0.9999 0.0001
2
 0.9995 0.0005
2
 0.99989 0.00011
2
 0.99999 1e-05
2
 0.9999 0.0001
2
 0.9999 0.0001
2
 0.99998 2e-05
2
 0.99989 0.00011
2
 0.9996 0.0004
2
 0.99996 4e-05
2
 0.9999 0.0001
2
 0.99995 5e-05
2
 0.9995 0.0005
2
 0.99995 5e-05
2
 0.99999 1e-05
2
 0.999973 2.7e-05
2
 0.99999 1e-05
2
 0.9999 0.0001
2
 0.9999 0.0001
2
 1 1.1e-07
2
 0.9991 0.0009
2
 0.9999 0.0001
2
 0.9995 0.0005
2
 0.9999 0.0001
2
 0.99995 5e-05
2
 1 1.6e-07
2
 0.9999 0.0001
2
 0.99985 0.00015
2
 0.9999 0.0001
2
 0.99991 9e-05
2
 0.9995 0.0005
2
 0.9996 0.0004
2
 1 8e-08
2
 0.99993 7e-05
2
 0.99998 2e-05
2
 0.9999 0.0001
2
 0.99999 1e-05
2
 0.9999 0.0001
2
 0.9999 0.0001
2
 0.99982 0.00018
2
 0.9995 0.0005
2
 1 4e-08
2
 0.99999 1e-05
2
 0.999997 2.88e-06
2
 0.9995 0.0005
2
 0.99922 0.00078
2
 0.9997 0.0003
2
 0.9994 0.0006
2
 0.9998 0.0002
2
 0.99993 7e-05
2
 0.9991 0.0009
2
 0.99995 5e-05
2
 0.9998 0.0002
2
 1 1e-08
2
 0.9998 0.0002
2
 0.99988 0.00012
2
 0.99989 0.00011
2
 0.9998 0.0002
2
 0.9994 0.0006
2
 0.99999 1e-05
2
 0.99975 0.00025
2
 0.9999 0.0001
2
 0.9999 0.0001
2
 0.9999 0.0001
2
 0.9999 0.0001
2
 0.9995 0.0005
2
 0.99999 1e-05
2
 0.99995 5e-05
2
 0.99999 1e-05
2
 0.99999 1e-05
2
 0.9995 0.0005
2
 0.99994 6e-05
2
 0.999971 2.917e-05
2
 0.9997 0.0003
2
 0.9995 0.0005
2
 0.99984 0.00016
2
 0.99993 7e-05
2
 0.9999 0.0001
2
 0.9999 0.0001
2
 0.99997 3e-05
2
 0.9999 0.0001
2
 0.999 0.001
2
 0.9999 0.0001
2
 0.9999 0.0001
2
 0.99991 9e-05
2
 0.9999 0.0001
2
 0.9999 0.0001
2
 0.9999 0.0001
2
 0.999 0.001
2
 0.99995 5e-05
2
 0.99998 2e-05
2
 0.9965 0.0035
2
 0.9999 0.0001
2
 0.9928 0.0072
2
 0.9999 0.0001
2
 0.99996 4e-05
2
 0.99985 0.00015
2
 0.9999 0.0001
2
 0.9999 0.0001
2
 0.9999 0.0001
2
 0.9999 0.0001
2
 0.999977 2.291e-05
2
 0.9991 0.0009
2
 0.99989 0.00011
2
 0.99995 5e-05
2
 0.999959 4.084e-05
2
 0.9991 0.0009
2
 1 2e-07
2
 0.99975 0.00025
2
 0.999956 4.44e-05
2
 0.998 0.002
2
 0.9988 0.0012
2
 0.99995 5e-05
2
 0.9999 0.0001
2
 0.9999 0.0001
2
 0.994 0.006
2
 0.9999 0.0001
2
 0.99987 0.00013
2
 0.99989 0.00011
2
 0.9999 0.0001
2
 0.9997 0.0003
2
 0.999999 6.2e-07
2
 0.99995 5e-05
2
 0.9999 0.0001
2
 0.99998 2e-05
2
 0.9995 0.0005
2
 0.99974 0.00026
2
 1 1.2e-07
2
 0.9998 0.0002
2
 0.999999 6.6e-07
2
 0.999 0.001
2
 0.999 0.001
2
 0.9995 0.0005
2
 0.999921 7.933e-05
2
 0.999994 6.29e-06
2
 0.99995 5e-05
2
 0.9996 0.0004
2
 0.9985 0.0015
2
 0.99995 5e-05
2
 0.9999 0.0001
2
 0.99998 2e-05
2
 0.99989 0.00011
2
 0.99999 1e-05
2
 0.9999 0.0001
2
 0.9999 0.0001
2
 0.9995 0.0005
2
 0.9999 0.0001
2
 0.999999 1e-06
2
 0.999995 5.23e-06
2
 0.9999 0.0001
2
 0.9995 0.0005
2
 0.999996 4e-06
2
 0.9999 0.0001
2
 1 1.6e-07
2
 0.9999 0.0001
2
 1 2e-08
2
 0.9994 0.0006
2
 0.9999 0.0001
2
 0.9999 0.0001
2
 0.9999 0.0001
2
 0.999907 9.332e-05
2
 1 1e-08
2
 0.9999 0.0001
2
 0.9994 0.0006
2
 0.9999 0.0001
2
 0.99989 0.00011
2
 0.999969 3.12e-05
2
 0.999999 1e-06
2
 0.9992 0.0008
2
 0.99995 5e-05
2
 0.999992 8e-06
2
 0.999993 6.77e-06
2
 0.9999 0.0001
2
 0.99975 0.00025
2
 0.9999 0.0001
2
 0.999915 8.54e-05
2
 0.9646 0.0354
2
 0.9999 0.0001
2
 0.9999 0.0001
2
 0.99999 1e-05
2
 0.99999 1e-05
2
 0.9999 0.0001
2
 1 2.9e-07
2
 0.99999 1e-05
2
 1 1.4e-07
2
 0.9998 0.0002
2
 0.99998 2e-05
2
 0.9999 0.0001
2
 0.9999 0.0001
2
 0.9999 0.0001
2
 0.99999 1e-05
2
 0.9999 0.0001
2
 0.9995 0.0005
2
 0.9995 0.0005
2
 0.99989 0.00011
2
 0.99991 9e-05
2
 0.99991 9e-05
2
 0.9999 0.0001
2
 0.9999 0.0001
2
 0.99995 5e-05
2
 1 9e-08
2
 0.99997 3e-05
2
 0.9999 0.0001
2
 0.99995 5e-05
2
 0.9999 0.0001
2
 1 1.1e-07
2
 1 2e-08
2
 0.99994 6e-05
2
 0.998 0.002
2
 0.9999 0.0001
2
 0.9999 0.0001
2
 0.9998 0.0002
2
 0.9999 0.0001
2
 1 5e-07
2
 0.99997 3e-05
2
 0.9999 0.0001
2
 0.999999 1e-06
2
 1 5e-08
2
 0.9999 0.0001
2
 0.9992 0.0008
2
 0.99995 5e-05
2
 0.999998 2.143e-06
2
 0.9999 0.0001
2
 0.99989 0.00011
2
 0.9995 0.0005
2
 1 3e-08
2
 0.99994 6.019e-05
2
 0.9999 0.0001
2
 1 3e-08
2
 0.9997 0.0003
2
 0.999985 1.48e-05
2
 0.9999 0.0001
2
 0.99995 5e-05
2
 0.999999 1e-06
2
 0.9975 0.0025
2
 0.9999 0.0001
2
 0.999 0.001
2
 0.9995 0.0005
2
 1 1e-08
2
 0.99997 3e-05
2
 0.9999 0.0001
2
 1 1e-07
2
 0.99989 0.00011
2
 0.99999 1e-05
2
 0.9999 0.0001
2
 0.99999 1e-05
2
 0.9999 0.0001
2
 0.99996 4e-05
2
 0.99997 3e-05
2
 0.9999 0.0001
2
 0.9999 0.0001
2
 0.9995 0.0005
2
 1 1e-08
2
 0.9998 0.0002
2
 0.9994 0.0006
2
 0.999948 5.16e-05
2
 0.9999 0.0001
2
 0.99997 3e-05
2
 0.999982 1.776e-05
2
 0.99998 2e-05
2
 0.9999 0.0001
2
 0.9997 0.0003
2
 0.999 0.001
2
 0.9999 0.0001
2
 0.99993 7e-05
1
 1

